100 514
1 12 1
1 50 1
1 53 -1
1 55 -1
1 80 1
1 88 1
2 7 1
2 32 1
2 43 -1
2 52 -1
2 67 1
2 87 -1
2 93 1
2 98 1
3 9 -1
3 13 -1
3 29 1
3 36 -1
3 37 1
3 51 1
3 61 1
3 70 1
3 72 -1
3 79 -1
3 93 -1
3 98 -1
4 17 1
4 22 1
4 42 -1
4 46 -1
4 57 -1
4 64 -1
4 68 -1
4 87 -1
4 90 -1
4 97 1
5 18 1
5 19 1
5 23 -1
5 25 -1
5 30 -1
5 35 1
5 42 -1
5 45 -1
5 75 1
5 82 1
5 97 1
5 99 -1
6 10 -1
6 18 1
6 29 -1
6 39 1
6 42 -1
6 43 1
6 45 1
6 53 -1
6 71 1
6 85 1
6 87 -1
6 95 1
7 8 -1
7 11 -1
7 13 1
7 27 1
7 52 1
7 59 1
7 64 -1
7 66 1
7 72 -1
7 81 -1
7 85 -1
7 94 1
7 100 1
8 19 1
8 24 1
8 31 1
8 36 -1
8 92 -1
8 93 -1
9 14 -1
9 15 -1
9 19 -1
9 25 1
9 28 -1
9 30 1
9 31 1
9 37 -1
9 47 1
9 58 1
9 59 -1
9 60 -1
9 70 -1
9 89 -1
9 90 -1
9 92 -1
10 17 -1
10 22 1
10 26 1
10 42 -1
10 51 1
10 79 1
10 84 -1
11 29 -1
11 39 -1
11 41 -1
11 43 -1
11 47 -1
11 48 1
11 50 -1
11 51 1
11 62 1
11 69 -1
11 86 -1
11 95 -1
11 96 1
12 25 -1
12 34 -1
12 37 -1
12 41 1
12 46 -1
12 51 1
12 54 -1
12 62 1
12 63 1
12 76 1
12 81 1
13 14 -1
13 15 1
13 20 1
13 31 -1
13 53 -1
13 75 1
13 77 1
13 78 1
13 97 -1
14 35 -1
14 43 1
14 44 -1
14 46 1
14 68 -1
14 74 1
14 80 1
14 88 1
14 97 1
15 45 1
15 61 1
15 64 1
15 67 -1
15 70 -1
16 29 -1
16 42 -1
16 49 -1
16 54 -1
16 55 -1
16 56 -1
16 60 -1
16 63 -1
16 64 -1
16 72 -1
16 73 -1
16 75 -1
17 29 1
17 36 1
17 45 1
17 57 1
17 63 1
17 79 -1
17 90 1
17 93 1
17 95 -1
18 24 -1
18 53 1
18 58 -1
18 65 1
18 66 1
18 78 1
18 83 -1
18 88 1
18 89 1
18 95 -1
18 97 1
19 43 -1
19 51 1
19 60 -1
19 63 1
19 65 1
19 70 1
19 74 1
19 77 -1
19 79 -1
19 87 1
20 21 -1
20 35 1
20 62 1
20 71 1
20 76 1
20 83 -1
20 94 1
20 100 -1
21 22 -1
21 24 1
21 46 1
21 56 -1
21 70 1
21 78 1
21 86 -1
21 92 1
22 31 1
22 35 1
22 39 1
22 55 1
22 60 -1
22 72 -1
22 77 -1
22 80 1
22 87 1
23 34 1
23 36 -1
23 46 -1
23 47 -1
23 67 1
23 71 1
23 91 1
23 96 -1
24 25 -1
24 34 1
24 35 -1
24 49 1
24 59 -1
24 60 -1
24 70 1
24 75 -1
24 78 1
24 88 1
24 94 1
24 96 -1
25 37 -1
25 43 -1
25 67 1
25 73 1
25 77 -1
26 30 -1
26 56 1
26 88 1
26 98 1
27 41 -1
27 54 1
27 75 -1
27 88 -1
27 99 1
28 29 -1
28 32 -1
28 79 1
28 80 -1
28 88 -1
28 92 -1
28 96 -1
28 98 -1
29 48 1
29 70 -1
29 71 -1
29 73 1
30 43 -1
30 48 -1
30 52 -1
30 56 1
30 64 1
30 93 1
30 98 -1
30 100 -1
31 33 -1
31 51 -1
31 57 1
31 74 -1
31 81 1
31 85 -1
31 91 1
31 98 1
32 43 -1
32 47 1
32 52 1
32 63 -1
32 84 1
33 36 -1
33 38 1
33 60 -1
33 77 1
33 86 1
33 89 1
34 35 -1
34 42 1
34 46 -1
34 47 -1
34 60 -1
34 68 -1
34 85 1
34 89 1
34 97 1
34 100 1
35 41 1
35 47 -1
35 48 -1
35 62 -1
35 80 -1
35 95 1
36 42 -1
36 50 1
36 53 -1
36 71 1
36 81 1
36 86 1
36 93 1
36 96 1
36 97 1
37 42 -1
37 45 1
37 48 1
37 49 -1
37 50 1
37 66 1
37 67 -1
37 77 -1
37 83 1
37 86 -1
37 91 -1
37 92 -1
37 96 1
38 51 1
38 55 -1
38 57 -1
38 94 -1
38 97 -1
38 100 1
39 47 -1
39 52 1
39 57 1
39 65 -1
39 70 1
39 88 -1
39 99 1
40 44 1
40 69 1
40 79 -1
40 80 1
40 82 -1
41 50 1
41 65 1
41 75 1
41 84 1
41 95 -1
42 51 1
42 57 1
42 67 -1
42 68 -1
42 96 1
43 50 -1
43 60 -1
43 74 1
43 84 1
43 85 -1
43 92 1
43 97 -1
43 100 -1
44 63 1
44 90 -1
44 99 -1
45 52 1
45 65 -1
45 66 -1
45 79 1
45 87 1
45 98 -1
46 59 1
46 64 -1
46 73 -1
46 83 1
46 98 -1
47 84 1
47 86 -1
48 69 -1
48 72 1
48 87 1
48 97 -1
48 99 1
49 52 -1
49 55 -1
49 60 -1
49 76 1
49 83 -1
49 84 1
49 86 1
49 97 1
50 54 -1
50 58 -1
50 62 -1
50 63 -1
50 73 1
51 55 -1
51 74 -1
51 81 -1
51 84 -1
51 85 -1
52 63 -1
52 84 -1
52 99 -1
53 55 1
53 73 -1
53 76 -1
53 78 -1
53 92 -1
53 93 1
54 67 -1
54 86 -1
54 93 1
54 97 1
55 65 1
55 72 1
55 89 1
56 57 -1
56 64 -1
56 69 1
56 82 -1
56 85 1
57 65 1
57 69 -1
57 77 1
57 87 -1
57 92 1
57 99 1
57 100 -1
58 61 -1
58 65 1
58 87 1
58 88 1
58 91 1
58 98 1
59 69 -1
59 82 1
59 90 1
60 90 1
60 92 1
60 95 -1
61 72 -1
61 85 -1
61 98 -1
62 97 -1
63 85 -1
63 89 1
63 90 -1
63 100 1
64 95 1
65 67 1
65 73 -1
65 74 1
65 78 1
65 81 1
65 83 1
65 92 1
65 95 1
66 72 -1
66 75 1
66 84 -1
66 96 1
67 79 1
67 88 -1
67 95 -1
68 72 1
68 84 -1
68 89 -1
68 95 -1
68 96 1
69 75 1
69 82 -1
69 84 1
70 88 -1
71 72 1
71 82 -1
71 85 -1
71 90 1
71 99 -1
72 73 -1
72 79 -1
72 98 1
73 86 1
73 88 1
73 89 1
73 98 1
74 75 1
74 85 1
74 93 1
75 83 -1
75 88 -1
75 92 -1
76 80 -1
77 94 -1
78 86 -1
79 98 -1
80 85 -1
80 91 -1
80 95 -1
80 100 1
81 90 1
83 98 1
84 96 1
85 93 1
85 100 -1
87 90 -1
88 93 1
88 94 -1
88 96 1
88 97 1
89 99 -1
94 97 -1
97 100 -1
